100
1000
204
204
202
202
200
200
197
194
194
191
189
187
181
180
180
179
179
177
176
175
174
173
169
169
168
167
161
158
151
145
143
139
136
136
135
135
134
133
131
130
130
128
124
124
123
122
120
116
113
112
111
110
109
109
106
105
104
103
102
101
99
99
97
96
81
81
78
78
77
75
73
72
68
67
64
64
62
62
55
54
51
47
45
45
35
34
34
32
32
31
30
28
26
25
23
22
20
17
15
13
